4 
5  03 18 33 46 53 
6  01 08 18 25 33 40 48 55 
7  03 10 18 25 33 40 48 55 
8  03 10 18 25 33 40 48 55 
9  03 10 18 25 33 40 52 59 
10  07 14 22 29 37 44 52 59 
11  07 14 22 29 37 44 52 59 
12  07 14 22 29 37 44 52 59 
13  07 14 22 29 37 44 52 59 
14  07 14 22 29 37 44 52 
15  03 11 18 25 33 41 48 56 
16  03 11 18 26 33 41 48 56 
17  03 11 18 26 33 41 48 57 
18  03 12 18 27 33 42 48 56 
19  07 14 22 29 37 44 54 
20  04 12 20 34 48 
21  03 18 33 48 
22  03 14 29 44 59 
23  19 
0 
